NAME : portcgen-19-27
COMMENT : portcgen N=19, seed=27
TYPE : TSP
DIMENSION : 19
EDGE_WEIGHT_TYPE : EUC_2D
NODE_COORD_SECTION
1 -8491 442882
2 19799 -78808
3 -54770 263487
4 140327 230003
5 -66741 132987
6 -19289 -110568
7 -292042 133517
8 -41495 251817
9 81360 144270
10 -17824 120385
11 -211964 -302327
12 -301796 -307758
13 45832 -58333
14 54889 -251012
15 -132255 131554
16 235517 -139867
17 303752 182788
18 231196 -198269
19 79716 288150
